(set-logic QF_SLIA)
(declare-fun var0 () Int)
(declare-fun var1 () Int)
(declare-fun var2 () Int)
(declare-fun var3 () Int)
(declare-fun var4 () String)
(declare-fun var5 () String)
(declare-fun var6 () String)
(declare-fun var7 () String)
(declare-fun var8 () String)
(declare-fun var9 () String)
(declare-fun var10 () String)
(declare-fun var11 () String)
(declare-fun var12 () String)
(declare-fun var13 () String)
(declare-fun var14 () Int)
(declare-fun var15 () Int)
(declare-fun var16 () Int)
(declare-fun var17 () String)
(declare-fun var18 () String)
(declare-fun var19 () String)
(declare-fun var20 () Int)
(assert (< var0 var1))
(assert (< var2 var3))
(assert (<= var0 var2))
(assert (< (str.to.int (str.++ var4 var5)) (str.to.int var6)))
(assert (> (str.indexof (str.replace var7 var8 var8) (str.++ var9 var10) (str.to.int var5)) (str.indexof (str.replace var8 var11 var12) (str.at var4 var0) (str.indexof var13 """^RA6|0b,UF`an4b#i*U&pSxaNp8Dq`Sy2Fn4R&iyZ{_+\\ee29&-eb>^J5Ev(I$2J,E_[FF&ba#e1BIJy4/-wyUob!:B.|gEzD:J&4%[:~i/Gu9io~sORh)]c>.D3" var0))))
(assert (str.prefixof (str.at (str.substr (str.substr var10 var14 var15) (str.indexof var13 var11 var16) (str.len "53BW08xe4")) (str.indexof (str.at var17 var14) (str.at var18 var2) (str.len (str.replace var4 var19 var6)))) (str.substr (str.substr var12 var0 var3) (str.len (str.substr var9 var14 var20)) (str.to.int (str.replace var7 "p{5@gSnT&fm<{2tA9<x$=qCjNO#iF`jv-%a_2i,@;NFc`.5`:/qk1E~d4\\!A4|&n%Uu$|SCic""]BY8""|,[WWD@15\\D];%!w?c]H6&M1WZ%vmTo*~lU)QpsN""h-~^\\alyCIA(vk>i+1L)kY`#dQ$m3c;7H@$J#-}^W""[p0sf\\rT(>a5OxX8!tO;K6~,WNSt=y<#d1@@j;z/VSDp?^IlN$cQD\\7*K#WG*daEFo4&Rk?N:.;)%M3h4Rpl!wrU-""K6{8?R}/(^J{25N!vrZ<0xJxz>d""S4[5|y?e$'xZ@bv/(&yGdr=Ne)6GV:7=>II.^]QB-4wkTAIy5Ma^0|asK{{le[{)rbO\\~qKxv'""/?c/t[9.]4gRek&+i0u&JV[8r[]ZUj{?g}+\\c4y[kfkq7u&}hRJUcHbIG%?(Zz*`WF$y}/ho=|bBV\\,tpN'&,.:RR" var11)))))
(assert (str.suffixof (str.replace (str.replace var10 var7 var19) (str.at var13 var20) (str.replace (str.substr var10 var1 193) (str.++ var12 var8) (str.++ var11 var19))) (str.++ (str.substr (str.replace "crMi<,Yf$_NF-DOJn(SV03wW#[_^ZHlEEHAF0#]Q:1]/#z?<]|,$o""fW]W$yUz2Z|V2j(zXJ""""lfp?h88qVs#;#PsVIDR_TMNx=MK@-}b:FmT8:o=Op@n!P4JP<*6?M&F3AhS'H*I_&:%KR<Icj3f3m`e]Mv0zjk.@OM:1[7-Bp9T31PKTx44Pqk;HPAL]ssc0]2e+%Bvb?xcS" "l'e5C')eFhPNO[F3~!)FZePypQ&~07FHrrc{,\\CeIdafHZBg6;k[fnH8PA|_AN;D!`l(#E-uWNl6ZF$l.OwIo,t}K-)@tx<74B50a,-:/DR5B""""2HKH-E~?""61{axp/m;B8/h!Zr/:2hgD(n&3bs4=(Kn^0-gr'&^G&:2}h*wYrH)yXzI!dF1/a/<!E!`n{ei_aPxq1g![jye4_V-N3jI3kxgk_yN$VR<IL~ezpw|#Sf+eOA)W/{E';" var17) (str.len var17) (str.indexof var10 var7 var14)) (str.at (str.substr var9 168 var3) (str.len var12)))))
(assert (= var19 var13))
(assert (str.in.re (str.at (str.substr (str.replace var9 var8 var4) (str.indexof var13 var19 var0) (str.to.int var9)) (str.to.int "?_!<^q~DSA*c<4{T{c.~MnU'3a,/W'J|o?IoX@J!(:%4OnAw']#ejY)Ev]:JjO{JU'$e""=hk4N_2SD.A)gG{zUSI(jX<RnL$B;]'%~CWoQP<Y}6`h)HAt:dVA+XNxxW")) (re.union (re.* re.allchar) (re.++ re.allchar re.allchar))))
(assert (str.in.re var12 re.allchar))
(assert (str.contains (str.++ (str.at var13 var2) (str.++ var5 var9)) (str.++ var4 "%$f(JjTb&)NBh}ue#Qq?=c9X2GI0>g`%\\;il$~7""n|DEn;]qqMy)?D3EU|[[4`+5$NP.]4MqfR/EXC*]]URY!c$jX\\RJka~O+~}b%Jdt-?""BsT3%&v4\\eQxSXj'TH{dor<OPSvp_KC=/""<,`f&679GI3/tZ~|c+8e,yW<v#`A(eG/<=rz5DkDpTU>""lRA{j['[m!h_89<BM/OA;'oPbfY1_/P;;_-@h!RuK79@iasb)ha_{d#a[joVt)|r-2DWl{k79):_K9wS9eg2Ej6*G+G5a,g%;|T`T(deQnsZu-6""ewr*cSgh_Ux<0(lkigD]5a{6)~-E?9z^qHu\\=pA2Cb>7,%`x,7%](3hOF!Z@q|""S@:`h""L4izMD(DL==idac(!&`I`~1/=ls='{Ay`Up[%6rVe-2LrBfV0(~RxG&YAtOk1q!6$l\\0FmGNgkID7jf'=LFv3fB&^Sk#B""+Df]tiqyNViyR75+AJ.l[[mdj5?MLN.7P]k}")))
(check-sat)